(declare-const x_init Int)
(declare-const c_0 Int)
(declare-const c_1 Int)
(declare-const c_2 Int)
(declare-const c_3 Int)
(declare-const c_4 Int)
(declare-const c_5 Int)
(declare-const c_6 Int)
(declare-const c_7 Int)
(declare-const c_8 Int)
(declare-const c_9 Int)
(assert (< c_0 0))
(assert (and (>= (+ (* 1 c_1 ) (* (- 1) x_init ) ) 0) (>= (+ (* (- 1) c_1 ) (* 1 x_init ) ) 0) ))
(assert (forall ((x Real) ) (=> (and (>= (+ (* (- 1) 1) (* (- 1) c_2 ) (* (- 1) c_3 x ) ) 0) (>= (+ (* 1 c_1 ) (* (- 1) x ) ) 0) (>= (+ (* (- 1) c_1 ) (* 1 x ) ) 0) ) (>= (+ (* 1 c_6 ) (* 1 c_7 x ) ) 0) )))
(assert (forall ((x Real) ) (=> (and (>= (+ (* (- 1) 1) (* (- 1) c_2 ) (* (- 1) c_3 x ) ) 0) (>= (+ (* 1 c_1 ) (* (- 1) x ) ) 0) (>= (+ (* (- 1) c_1 ) (* 1 x ) ) 0) ) (>= (+ (* 1 c_8 ) (* 1 c_9 x ) ) 0) )))
(assert (forall ((x Real) ) (=> (and (>= (+ (* (- 1) 1) (* (- 1) c_4 ) (* (- 1) c_5 x ) ) 0) (>= (+ (* 1 c_1 ) (* (- 1) x ) ) 0) (>= (+ (* (- 1) c_1 ) (* 1 x ) ) 0) ) (>= (+ (* 1 c_6 ) (* 1 c_7 x ) ) 0) )))
(assert (forall ((x Real) ) (=> (and (>= (+ (* (- 1) 1) (* (- 1) c_4 ) (* (- 1) c_5 x ) ) 0) (>= (+ (* 1 c_1 ) (* (- 1) x ) ) 0) (>= (+ (* (- 1) c_1 ) (* 1 x ) ) 0) ) (>= (+ (* 1 c_8 ) (* 1 c_9 x ) ) 0) )))
(assert (forall ((x Real) ) (=> (and (>= (+ (* (- 1) 1) (* (- 1) c_2 ) (* (- 10) c_3 ) (* 2 c_3 x ) ) 0) (>= (+ (* (- 1) 1) (* 1 x ) ) 0) (>= (+ (* 1 c_2 ) (* 1 c_3 x ) ) 0) (>= (+ (* 1 c_4 ) (* 1 c_5 x ) ) 0) ) (>= (+ (* 1 c_6 ) (* 10 c_7 ) (* (- 2) c_7 x ) ) 0) )))
(assert (forall ((x Real) ) (=> (and (>= (+ (* (- 1) 1) (* (- 1) c_2 ) (* (- 10) c_3 ) (* 2 c_3 x ) ) 0) (>= (+ (* (- 1) 1) (* 1 x ) ) 0) (>= (+ (* 1 c_2 ) (* 1 c_3 x ) ) 0) (>= (+ (* 1 c_4 ) (* 1 c_5 x ) ) 0) ) (>= (+ (* 1 c_8 ) (* 10 c_9 ) (* (- 2) c_9 x ) ) 0) )))
(assert (forall ((x Real) ) (=> (and (>= (+ (* (- 1) 1) (* (- 1) c_4 ) (* (- 10) c_5 ) (* 2 c_5 x ) ) 0) (>= (+ (* (- 1) 1) (* 1 x ) ) 0) (>= (+ (* 1 c_2 ) (* 1 c_3 x ) ) 0) (>= (+ (* 1 c_4 ) (* 1 c_5 x ) ) 0) ) (>= (+ (* 1 c_6 ) (* 10 c_7 ) (* (- 2) c_7 x ) ) 0) )))
(assert (forall ((x Real) ) (=> (and (>= (+ (* (- 1) 1) (* (- 1) c_4 ) (* (- 10) c_5 ) (* 2 c_5 x ) ) 0) (>= (+ (* (- 1) 1) (* 1 x ) ) 0) (>= (+ (* 1 c_2 ) (* 1 c_3 x ) ) 0) (>= (+ (* 1 c_4 ) (* 1 c_5 x ) ) 0) ) (>= (+ (* 1 c_8 ) (* 10 c_9 ) (* (- 2) c_9 x ) ) 0) )))
(assert (forall ((x Real) ) (=> (and (>= (+ (* (- 1) 1) (* (- 1) c_2 ) (* (- 10) c_3 ) (* 2 c_3 x ) ) 0) (>= (+ (* (- 1) 1) (* 1 x ) ) 0) (>= (+ (* 1 c_6 ) (* 1 c_7 x ) ) 0) (>= (+ (* 1 c_8 ) (* 1 c_9 x ) ) 0) ) (>= (+ (* 1 c_6 ) (* 10 c_7 ) (* (- 2) c_7 x ) ) 0) )))
(assert (forall ((x Real) ) (=> (and (>= (+ (* (- 1) 1) (* (- 1) c_2 ) (* (- 10) c_3 ) (* 2 c_3 x ) ) 0) (>= (+ (* (- 1) 1) (* 1 x ) ) 0) (>= (+ (* 1 c_6 ) (* 1 c_7 x ) ) 0) (>= (+ (* 1 c_8 ) (* 1 c_9 x ) ) 0) ) (>= (+ (* 1 c_8 ) (* 10 c_9 ) (* (- 2) c_9 x ) ) 0) )))
(assert (forall ((x Real) ) (=> (and (>= (+ (* (- 1) 1) (* (- 1) c_4 ) (* (- 10) c_5 ) (* 2 c_5 x ) ) 0) (>= (+ (* (- 1) 1) (* 1 x ) ) 0) (>= (+ (* 1 c_6 ) (* 1 c_7 x ) ) 0) (>= (+ (* 1 c_8 ) (* 1 c_9 x ) ) 0) ) (>= (+ (* 1 c_6 ) (* 10 c_7 ) (* (- 2) c_7 x ) ) 0) )))
(assert (forall ((x Real) ) (=> (and (>= (+ (* (- 1) 1) (* (- 1) c_4 ) (* (- 10) c_5 ) (* 2 c_5 x ) ) 0) (>= (+ (* (- 1) 1) (* 1 x ) ) 0) (>= (+ (* 1 c_6 ) (* 1 c_7 x ) ) 0) (>= (+ (* 1 c_8 ) (* 1 c_9 x ) ) 0) ) (>= (+ (* 1 c_8 ) (* 10 c_9 ) (* (- 2) c_9 x ) ) 0) )))
(assert (forall ((x Real) ) (=> (and (>= (* (- 1) x ) 0) (>= (+ (* 1 c_2 ) (* 1 c_3 x ) ) 0) (>= (+ (* 1 c_4 ) (* 1 c_5 x ) ) 0) ) (>= (* 1 c_0 ) 0) )))
(assert (forall ((x Real) ) (=> (and (>= (* (- 1) x ) 0) (>= (+ (* 1 c_6 ) (* 1 c_7 x ) ) 0) (>= (+ (* 1 c_8 ) (* 1 c_9 x ) ) 0) ) (>= (* 1 c_0 ) 0) )))
(check-sat)
(get-model)

